eprime/kakuro/solving_techniques/kakurocom/2-filled-areas.param
letting x_max be 4
letting y_max be 3

letting blanks be 
[
    [0,0,0],
    [0,0,1],
    [0,1,1],
    [0,1,1]
]

letting vertsums be 
[
    [ 0, 0, 6],
    [ 0, 4, 0],
    [ 0, 0, 0],
    [ 0, 0, 0]
]

letting horzsums be 
[
    [ 0, 0, 0],
    [ 0, 0, 0],
    [ 4, 0, 0],
    [ 3, 0, 0]
]